certificates/rado_a15_c254_N28.drat
-27 -28 0
d -27 -17 -28 0
-18 -28 0
-28 0
18 0
-2 0
-17 0
1 0
3 0
16 0
27 0
-15 0
-19 0
-4 0
-13 0
-11 0
14 0
20 0
5 0
12 0
10 0
-6 0
-21 0
-26 0
-24 0
7 0
22 0
25 0
23 0
0
